NAME : bcl38
COMMENT : Bonn VLSI data set with 38 points
COMMENT : Uni Bonn, Research Institute for Discrete Math
COMMENT : Contributed by Andre Rohe
TYPE : TSP
DIMENSION : 38
EDGE_WEIGHT_TYPE : EUC_2D
NODE_COORD_SECTION
1 0 108
2 0 20
3 0 21
4 0 22
5 0 23
6 0 24
7 0 28
EOF
